NAME: R106
COMMENT: converted from Solomon txt
TYPE: VRPTW
VEHICLES: 25
DIMENSION: 101
CAPACITY: 200
EDGE_WEIGHT_TYPE: EUC_2D
NODE_COORD_SECTION
1	35.0	35.0
2	41.0	49.0
3	35.0	17.0
4	55.0	45.0
5	55.0	20.0
6	15.0	30.0
7	25.0	30.0
8	20.0	50.0
9	10.0	43.0
10	55.0	60.0
11	30.0	60.0
12	20.0	65.0
13	50.0	35.0
14	30.0	25.0
15	15.0	10.0
16	30.0	5.0
17	10.0	20.0
18	5.0	30.0
19	20.0	40.0
20	15.0	60.0
21	45.0	65.0
22	45.0	20.0
23	45.0	10.0
24	55.0	5.0
25	65.0	35.0
26	65.0	20.0
27	45.0	30.0
28	35.0	40.0
29	41.0	37.0
30	64.0	42.0
31	40.0	60.0
32	31.0	52.0
33	35.0	69.0
34	53.0	52.0
35	65.0	55.0
36	63.0	65.0
37	2.0	60.0
38	20.0	20.0
39	5.0	5.0
40	60.0	12.0
41	40.0	25.0
42	42.0	7.0
43	24.0	12.0
44	23.0	3.0
45	11.0	14.0
46	6.0	38.0
47	2.0	48.0
48	8.0	56.0
49	13.0	52.0
50	6.0	68.0
51	47.0	47.0
52	49.0	58.0
53	27.0	43.0
54	37.0	31.0
55	57.0	29.0
56	63.0	23.0
57	53.0	12.0
58	32.0	12.0
59	36.0	26.0
60	21.0	24.0
61	17.0	34.0
62	12.0	24.0
63	24.0	58.0
64	27.0	69.0
65	15.0	77.0
66	62.0	77.0
67	49.0	73.0
68	67.0	5.0
69	56.0	39.0
70	37.0	47.0
71	37.0	56.0
72	57.0	68.0
73	47.0	16.0
74	44.0	17.0
75	46.0	13.0
76	49.0	11.0
77	49.0	42.0
78	53.0	43.0
79	61.0	52.0
80	57.0	48.0
81	56.0	37.0
82	55.0	54.0
83	15.0	47.0
84	14.0	37.0
85	11.0	31.0
86	16.0	22.0
87	4.0	18.0
88	28.0	18.0
89	26.0	52.0
90	26.0	35.0
91	31.0	67.0
92	15.0	19.0
93	22.0	22.0
94	18.0	24.0
95	26.0	27.0
96	25.0	24.0
97	22.0	27.0
98	25.0	21.0
99	19.0	21.0
100	20.0	26.0
101	18.0	18.0
DEMAND_SECTION
1	0
2	10
3	7
4	13
5	19
6	26
7	3
8	5
9	9
10	16
11	16
12	12
13	19
14	23
15	20
16	8
17	19
18	2
19	12
20	17
21	9
22	11
23	18
24	29
25	3
26	6
27	17
28	16
29	16
30	9
31	21
32	27
33	23
34	11
35	14
36	8
37	5
38	8
39	16
40	31
41	9
42	5
43	5
44	7
45	18
46	16
47	1
48	27
49	36
50	30
51	13
52	10
53	9
54	14
55	18
56	2
57	6
58	7
59	18
60	28
61	3
62	13
63	19
64	10
65	9
66	20
67	25
68	25
69	36
70	6
71	5
72	15
73	25
74	9
75	8
76	18
77	13
78	14
79	3
80	23
81	6
82	26
83	16
84	11
85	7
86	41
87	35
88	26
89	9
90	15
91	3
92	1
93	2
94	22
95	27
96	20
97	11
98	12
99	10
100	9
101	17
DEPOT_SECTION
1
TIME_WINDOW_SECTION
1	0.0	230.0
2	0.0	204.0
3	0.0	202.0
4	0.0	197.0
5	139.0	169.0
6	0.0	199.0
7	89.0	119.0
8	0.0	198.0
9	85.0	115.0
10	87.0	117.0
11	114.0	144.0
12	57.0	87.0
13	0.0	205.0
14	149.0	179.0
15	32.0	62.0
16	51.0	81.0
17	65.0	95.0
18	147.0	177.0
19	77.0	107.0
20	66.0	96.0
21	116.0	146.0
22	0.0	201.0
23	87.0	117.0
24	58.0	88.0
25	143.0	173.0
26	156.0	186.0
27	0.0	208.0
28	27.0	57.0
29	29.0	59.0
30	53.0	83.0
31	61.0	91.0
32	0.0	202.0
33	131.0	161.0
34	27.0	57.0
35	0.0	183.0
36	133.0	163.0
37	41.0	71.0
38	0.0	198.0
39	73.0	103.0
40	34.0	64.0
41	75.0	105.0
42	87.0	117.0
43	25.0	55.0
44	122.0	152.0
45	59.0	89.0
46	29.0	59.0
47	107.0	137.0
48	41.0	71.0
49	0.0	192.0
50	98.0	128.0
51	0.0	203.0
52	78.0	108.0
53	0.0	208.0
54	85.0	115.0
55	130.0	160.0
56	126.0	156.0
57	120.0	150.0
58	91.0	121.0
59	180.0	210.0
60	0.0	202.0
61	152.0	182.0
62	66.0	96.0
63	48.0	78.0
64	34.0	64.0
65	63.0	93.0
66	49.0	79.0
67	117.0	147.0
68	73.0	103.0
69	132.0	162.0
70	40.0	70.0
71	168.0	198.0
72	67.0	97.0
73	0.0	197.0
74	68.0	98.0
75	139.0	169.0
76	0.0	192.0
77	63.0	93.0
78	169.0	199.0
79	86.0	116.0
80	82.0	112.0
81	168.0	198.0
82	84.0	114.0
83	0.0	196.0
84	0.0	198.0
85	91.0	121.0
86	0.0	196.0
87	84.0	114.0
88	83.0	113.0
89	64.0	94.0
90	166.0	196.0
91	85.0	115.0
92	0.0	194.0
93	18.0	48.0
94	169.0	199.0
95	0.0	207.0
96	0.0	205.0
97	0.0	204.0
98	123.0	153.0
99	0.0	198.0
100	73.0	103.0
101	165.0	195.0
SERVICE_TIME_SECTION
1	0.0
2	10.0
3	10.0
4	10.0
5	10.0
6	10.0
7	10.0
8	10.0
9	10.0
10	10.0
11	10.0
12	10.0
13	10.0
14	10.0
15	10.0
16	10.0
17	10.0
18	10.0
19	10.0
20	10.0
21	10.0
22	10.0
23	10.0
24	10.0
25	10.0
26	10.0
27	10.0
28	10.0
29	10.0
30	10.0
31	10.0
32	10.0
33	10.0
34	10.0
35	10.0
36	10.0
37	10.0
38	10.0
39	10.0
40	10.0
41	10.0
42	10.0
43	10.0
44	10.0
45	10.0
46	10.0
47	10.0
48	10.0
49	10.0
50	10.0
51	10.0
52	10.0
53	10.0
54	10.0
55	10.0
56	10.0
57	10.0
58	10.0
59	10.0
60	10.0
61	10.0
62	10.0
63	10.0
64	10.0
65	10.0
66	10.0
67	10.0
68	10.0
69	10.0
70	10.0
71	10.0
72	10.0
73	10.0
74	10.0
75	10.0
76	10.0
77	10.0
78	10.0
79	10.0
80	10.0
81	10.0
82	10.0
83	10.0
84	10.0
85	10.0
86	10.0
87	10.0
88	10.0
89	10.0
90	10.0
91	10.0
92	10.0
93	10.0
94	10.0
95	10.0
96	10.0
97	10.0
98	10.0
99	10.0
100	10.0
101	10.0
EOF
